param set_len = 30;
param target := 993264;
set values := 97576, 113755, 66852, 108453, 26559, 72635, 10341, 82228, 13016, 55511, 79416, 13149, 111152, 114958, 126294, 115543, 7901, 130461, 4587, 119481, 125024, 24416, 103514, 83821, 43060, 50313, 87487, 90419, 100819, 90340, ;
